RT is False
Default write of storage_offers_DA.csv just to have a file (but constraint should be inactive)
Reading model...
...model read.
creating competitive generators file...
...competitive generators recorded.
Loading data...
.. day-ahead data read.
Compiling instance...
...instance created.
Creating Offer Mitigation (model will solve as dispatch if TRUE)...
NOTE: storage offers will not be mitigated
...storage offer mitigation file created
Converting model to MPEC...
...converted
NOTE: initial MIP solve with only storage competitive to get feasible solution
Solving...

Welcome to IBM(R) ILOG(R) CPLEX(R) Interactive Optimizer 12.9.0.0
  with Simplex, Mixed Integer & Barrier Optimizers
5725-A06 5725-A29 5724-Y48 5724-Y49 5724-Y54 5724-Y55 5655-Y21
Copyright IBM Corp. 1988, 2019.  All Rights Reserved.

Type 'help' for a list of available commands.
Type 'help' followed by a command name for more
information on commands.

CPLEX> Logfile 'cplex.log' closed.
Logfile 'C:\Users\Luke\Desktop\test919\logs\tmp2k8jyfjx.cplex.log' open.
CPLEX> New value for parallel optimization mode: -1
CPLEX> New value for mixed integer optimality gap tolerance: 0.01
CPLEX> New value for integrality tolerance: 1e-09
CPLEX> New value for feasibility tolerance: 0.01
CPLEX> New value for deterministic time limit in ticks: 75000
CPLEX> Problem 'C:\Users\Luke\Desktop\test919\logs\tmp0nos_xrd.pyomo.lp' read.
Read time = 0.20 sec. (14.73 ticks)
CPLEX> Problem name         : C:\Users\Luke\Desktop\test919\logs\tmp0nos_xrd.pyomo.lp
Objective sense      : Maximize
Variables            :   53805  [Nneg: 1,  Box: 22000,  Free: 4464,
                                 Binary: 27340]
Objective nonzeros   :    9010
Linear constraints   :  123205  [Less: 41346,  Greater: 59096,  Equal: 22763]
  Nonzeros           :  291831
  RHS nonzeros       :   67521

Variables            : Min LB: -5000.000        Max UB: 1000000.       
Objective nonzeros   : Min   : 0.1000000        Max   : 731.5000       
Linear constraints   :
  Nonzeros           : Min   : 0.1000000        Max   : 1000000.       
  RHS nonzeros       : Min   : 0.1000000        Max   : 1000000.       
CPLEX> CPXPARAM_Parallel                                -1
CPXPARAM_Simplex_Tolerances_Feasibility          0.01
CPXPARAM_DetTimeLimit                            75000
CPXPARAM_MIP_Tolerances_MIPGap                   0.01
CPXPARAM_MIP_Tolerances_Integrality              1.0000000000000001e-09
Tried aggregator 3 times.
MIP Presolve eliminated 88506 rows and 18832 columns.
MIP Presolve added 3435 rows and 0 columns.
MIP Presolve modified 24933 coefficients.
Aggregator did 13014 substitutions.
Reduced MIP has 25120 rows, 21429 columns, and 71608 nonzeros.
Reduced MIP has 8466 binaries, 0 generals, 0 SOSs, and 0 indicators.
Presolve time = 0.23 sec. (176.55 ticks)
Probing fixed 390 vars, tightened 2810 bounds.
Probing time = 1.50 sec. (899.33 ticks)
Tried aggregator 2 times.
MIP Presolve eliminated 882 rows and 782 columns.
MIP Presolve modified 2222 coefficients.
Aggregator did 40 substitutions.
Reduced MIP has 24198 rows, 20607 columns, and 68942 nonzeros.
Reduced MIP has 8075 binaries, 0 generals, 0 SOSs, and 0 indicators.
Presolve time = 0.09 sec. (71.52 ticks)
Probing time = 0.03 sec. (16.04 ticks)
Clique table members: 6453.
MIP emphasis: balance optimality and feasibility.
MIP search method: dynamic search.
Parallel mode: opportunistic, using up to 24 threads.
Root relaxation solution time = 0.41 sec. (297.31 ticks)

        Nodes                                         Cuts/
   Node  Left     Objective  IInf  Best Integer    Best Bound    ItCnt     Gap

      0     0     7388.1069  1866                   7388.1069     7199         
      0     0     7385.7085    40                    Cuts: 47     7214         
      0     0     7383.6052    36                    Cuts: 33     7224         
      0     0     7382.5570    36                Flowcuts: 18     7226         
      0     0     7382.5570    37                Flowcuts: 11     7228         
      0     0     7382.1669    31                    Cuts: 10     7230         
      0     0     7382.1669    31                 Flowcuts: 6     7231         
      0     8    infeasible                           Cuts: 3     7427         
Elapsed time = 9.13 sec. (6080.98 ticks, tree = 0.02 MB, solutions = 0)
    382   212     7200.2056    10                   7374.7663     9195         
*   661   406      integral     0     3763.4473     7374.7663     9835   95.96%
    716   433     3743.8350     4     3763.4473     7374.7663     9874   95.96%
    932   515     7257.8110    14     3763.4473     7374.7663    10425   95.96%
   1119   566     3937.6227     1     3763.4473     7374.7663    10658   95.96%
   1284   657     7236.6599     5     7139.2093     7374.7663    11097    3.30%
*  1378   677      integral     0     7140.9504     7374.7663    11243    3.27%
   1463   357     7212.2345     5     7140.9504     7374.7663    11288    3.27%
   1679   221     7195.6723     2     7140.9504     7336.3883    11470    2.74%
*  1739   378      integral     0     7168.4322     7336.3883    11380    2.34%
   1997   289     7209.3839     2     7168.4322     7322.9469    11995    2.16%
*  2127   342      integral     0     7180.2076     7322.9469    18347    1.99%
   2378   442     7269.1747    11     7180.2076     7322.9469    24690    1.99%
*  3639   751      integral     0     7232.4035     7277.0094    38743    0.62%
   3649   772        cutoff           7232.4035     7277.0094    38823    0.62%
Elapsed time = 15.58 sec. (9195.35 ticks, tree = 9.55 MB, solutions = 7)

Implied bound cuts applied:  14
Flow cuts applied:  248
Mixed integer rounding cuts applied:  2
Gomory fractional cuts applied:  15

Root node processing (before b&c):
  Real time             =    8.75 sec. (6074.37 ticks)
Parallel b&c, 24 threads:
  Real time             =    7.03 sec. (3235.80 ticks)
  Sync time (average)   =    0.19 sec.
  Wait time (average)   =    0.00 sec.
                          ------------
Total (root+branch&cut) =   15.78 sec. (9310.17 ticks)

Solution pool: 7 solutions saved.

MIP - Integer optimal, tolerance (0.01/1e-06):  Objective =  7.2324034802e+03
Current MIP best bound =  7.2763303413e+03 (gap = 43.9269, 0.61%)
Solution time =   15.78 sec.  Iterations = 47911  Nodes = 3661 (434)
Deterministic time = 9310.32 ticks  (589.93 ticks/sec)

CPLEX> Incumbent solution written to file 'C:\Users\Luke\Desktop\test919\logs\tmpbq1oh0qq.cplex.sol'.
CPLEX> NOTE: no warmstart specified for MIP iteration, default behavior is true
NOTE: resolving with all competitive generators using storage-only solution to warmstart
Solving...

Welcome to IBM(R) ILOG(R) CPLEX(R) Interactive Optimizer 12.9.0.0
  with Simplex, Mixed Integer & Barrier Optimizers
5725-A06 5725-A29 5724-Y48 5724-Y49 5724-Y54 5724-Y55 5655-Y21
Copyright IBM Corp. 1988, 2019.  All Rights Reserved.

Type 'help' for a list of available commands.
Type 'help' followed by a command name for more
information on commands.

CPLEX> Logfile 'cplex.log' closed.
Logfile 'C:\Users\Luke\Desktop\test919\logs\tmp7bz3klca.cplex.log' open.
CPLEX> New value for parallel optimization mode: -1
CPLEX> New value for mixed integer optimality gap tolerance: 0.01
CPLEX> New value for integrality tolerance: 1e-09
CPLEX> New value for feasibility tolerance: 0.01
CPLEX> New value for deterministic time limit in ticks: 75000
CPLEX> Problem 'C:\Users\Luke\Desktop\test919\logs\tmp827fe6fn.pyomo.lp' read.
Read time = 0.19 sec. (14.75 ticks)
CPLEX> MIP start file 'C:\Users\Luke\Desktop\test919\logs\tmpxdllezd2.cplex.mst' read.
CPLEX> Problem name         : C:\Users\Luke\Desktop\test919\logs\tmp827fe6fn.pyomo.lp
Objective sense      : Maximize
Variables            :   54525  [Nneg: 1,  Box: 22720,  Free: 4464,
                                 Binary: 27340]
Objective nonzeros   :    9730
Linear constraints   :  123205  [Less: 41346,  Greater: 59096,  Equal: 22763]
  Nonzeros           :  291831
  RHS nonzeros       :   67521

Variables            : Min LB: -5000.000        Max UB: 1000000.       
Objective nonzeros   : Min   : 0.1000000        Max   : 731.5000       
Linear constraints   :
  Nonzeros           : Min   : 0.1000000        Max   : 1000000.       
  RHS nonzeros       : Min   : 0.1000000        Max   : 1000000.       
CPLEX> CPXPARAM_Parallel                                -1
CPXPARAM_Simplex_Tolerances_Feasibility          0.01
CPXPARAM_DetTimeLimit                            75000
CPXPARAM_MIP_Tolerances_MIPGap                   0.01
CPXPARAM_MIP_Tolerances_Integrality              1.0000000000000001e-09
Warning:  No solution found from 1 MIP starts.
Retaining values of one MIP start for possible repair.
Tried aggregator 3 times.
MIP Presolve eliminated 88506 rows and 19552 columns.
MIP Presolve added 3435 rows and 0 columns.
MIP Presolve modified 24933 coefficients.
Aggregator did 13014 substitutions.
Reduced MIP has 25120 rows, 21429 columns, and 71608 nonzeros.
Reduced MIP has 8466 binaries, 0 generals, 0 SOSs, and 0 indicators.
Presolve time = 0.23 sec. (176.92 ticks)
Probing fixed 390 vars, tightened 2810 bounds.
Probing time = 1.45 sec. (899.33 ticks)
Tried aggregator 2 times.
MIP Presolve eliminated 882 rows and 782 columns.
MIP Presolve modified 2222 coefficients.
Aggregator did 40 substitutions.
Reduced MIP has 24198 rows, 20607 columns, and 68942 nonzeros.
Reduced MIP has 8075 binaries, 0 generals, 0 SOSs, and 0 indicators.
Presolve time = 0.09 sec. (71.52 ticks)
Probing time = 0.03 sec. (16.04 ticks)
Clique table members: 6453.
MIP emphasis: balance optimality and feasibility.
MIP search method: dynamic search.
Parallel mode: opportunistic, using up to 24 threads.
Root relaxation solution time = 0.41 sec. (297.31 ticks)

        Nodes                                         Cuts/
   Node  Left     Objective  IInf  Best Integer    Best Bound    ItCnt     Gap

      0     0     7388.1069  1866                   7388.1069     7199         
      0     0     7385.7085    40                    Cuts: 47     7214         
      0     0     7383.6052    36                    Cuts: 33     7224         
      0     0     7382.5570    36                Flowcuts: 18     7226         
      0     0     7382.5570    37                Flowcuts: 11     7228         
      0     0     7382.1669    31                    Cuts: 10     7230         
      0     0     7382.1669    31                 Flowcuts: 6     7231         
Repair heuristic found nothing.
      0     8    infeasible                           Cuts: 3     7427         
Elapsed time = 9.28 sec. (6156.28 ticks, tree = 0.02 MB, solutions = 0)
*   314    70      integral     0     1526.1480     7374.7663     8404  383.23%
    394   141     7124.9057    10     1526.1480     7374.7663     8720  383.23%
    695   499     6933.9883     1     1526.1480     7374.7663     9864  383.23%
    863   599     3392.5766     1     1526.1480     7374.7663    10133  383.23%
   1019   624     4130.5786     2     1526.1480     7374.7663    10246  383.23%
   1160   708     7184.0988     6     1526.1480     7374.7663    10635  383.23%
   1298   688        cutoff           1526.1480     7374.7663    10547  383.23%
*  1328   708      integral     0     7083.7283     7374.7663    10702    4.11%
   1414   711     6929.9984     1     7083.7283     7374.7663    10684    4.11%
   1538   709     7111.5859     3     7083.7283     7374.7663    10672    4.11%
   1722   708        cutoff           7083.7283     7374.7663    10706    4.11%
   3145   298        cutoff           7174.8510     7277.3468    13553    1.43%
Elapsed time = 16.25 sec. (9270.46 ticks, tree = 3.55 MB, solutions = 5)
*  3588   407      integral     0     7248.4332     7277.0100    14556    0.39%

Cover cuts applied:  1
Implied bound cuts applied:  12
Flow cuts applied:  40
Mixed integer rounding cuts applied:  2
Gomory fractional cuts applied:  10

Root node processing (before b&c):
  Real time             =    8.88 sec. (6149.77 ticks)
Parallel b&c, 24 threads:
  Real time             =    7.88 sec. (3959.81 ticks)
  Sync time (average)   =    0.81 sec.
  Wait time (average)   =    0.00 sec.
                          ------------
Total (root+branch&cut) =   16.75 sec. (10109.59 ticks)

Solution pool: 5 solutions saved.

MIP - Integer optimal, tolerance (0.01/1e-06):  Objective =  7.2484332364e+03
Current MIP best bound =  7.2770100253e+03 (gap = 28.5768, 0.39%)
Solution time =   16.77 sec.  Iterations = 17022  Nodes = 3775 (178)
Deterministic time = 10109.74 ticks  (603.03 ticks/sec)

CPLEX> Incumbent solution written to file 'C:\Users\Luke\Desktop\test919\logs\tmpi_rjpka8.cplex.sol'.
CPLEX> Exporting results... 
